Minimize
 obj: 0 X_0_1
Subject To
 out_0:
  + 1 X_0_1 + 1 X_0_2 + 1 X_0_3 + 1 X_0_4
  = 1
 in_0:
  + 1 X_1_0 + 1 X_2_0 + 1 X_3_0 + 1 X_4_0
  = 1
 out_1:
  + 1 X_1_0 + 1 X_1_2 + 1 X_1_3 + 1 X_1_4
  = 1
 in_1:
  + 1 X_0_1 + 1 X_2_1 + 1 X_3_1 + 1 X_4_1
  = 1
 out_2:
  + 1 X_2_0 + 1 X_2_1 + 1 X_2_3 + 1 X_2_4
  = 1
 in_2:
  + 1 X_0_2 + 1 X_1_2 + 1 X_3_2 + 1 X_4_2
  = 1
 out_3:
  + 1 X_3_0 + 1 X_3_1 + 1 X_3_2 + 1 X_3_4
  = 1
 in_3:
  + 1 X_0_3 + 1 X_1_3 + 1 X_2_3 + 1 X_4_3
  = 1
 out_4:
  + 1 X_4_0 + 1 X_4_1 + 1 X_4_2 + 1 X_4_3
  = 1
 in_4:
  + 1 X_0_4 + 1 X_1_4 + 1 X_2_4 + 1 X_3_4
  = 1
 mtz_1_2:
  + 1 U1 - 1 U2 + 4 X_1_2
  <= 3
 mtz_1_3:
  + 1 U1 - 1 U3 + 4 X_1_3
  <= 3
 mtz_1_4:
  + 1 U1 - 1 U4 + 4 X_1_4
  <= 3
 mtz_2_1:
  + 1 U2 - 1 U1 + 4 X_2_1
  <= 3
 mtz_2_3:
  + 1 U2 - 1 U3 + 4 X_2_3
  <= 3
 mtz_2_4:
  + 1 U2 - 1 U4 + 4 X_2_4
  <= 3
 mtz_3_1:
  + 1 U3 - 1 U1 + 4 X_3_1
  <= 3
 mtz_3_2:
  + 1 U3 - 1 U2 + 4 X_3_2
  <= 3
 mtz_3_4:
  + 1 U3 - 1 U4 + 4 X_3_4
  <= 3
 mtz_4_1:
  + 1 U4 - 1 U1 + 4 X_4_1
  <= 3
 mtz_4_2:
  + 1 U4 - 1 U2 + 4 X_4_2
  <= 3
 mtz_4_3:
  + 1 U4 - 1 U3 + 4 X_4_3
  <= 3
 obj1:
  + 835 X_0_1 + 1024 X_0_2 + 1096 X_0_3 + 579 X_0_4 + 835 X_1_0 + 614 X_1_2 + 653 X_1_3 + 387 X_1_4
  + 1024 X_2_0 + 614 X_2_1 + 71 X_2_3 + 899 X_2_4 + 1096 X_3_0 + 653 X_3_1 + 71 X_3_2 + 955 X_3_4
  + 579 X_4_0 + 387 X_4_1 + 899 X_4_2 + 955 X_4_3
  <= 1
 obj2:
  + 794 X_0_1 + 80 X_0_2 + 724 X_0_3 + 259 X_0_4 + 794 X_1_0 + 874 X_1_2 + 201 X_1_3 + 860 X_1_4
  + 80 X_2_0 + 874 X_2_1 + 800 X_2_3 + 272 X_2_4 + 724 X_3_0 + 201 X_3_1 + 800 X_3_2 + 849 X_3_4
  + 259 X_4_0 + 860 X_4_1 + 272 X_4_2 + 849 X_4_3
  <= 2
 obj3:
  + 701 X_0_1 + 458 X_0_2 + 989 X_0_3 + 980 X_0_4 + 701 X_1_0 + 739 X_1_2 + 1028 X_1_3 + 522 X_1_4
  + 458 X_2_0 + 739 X_2_1 + 532 X_2_3 + 733 X_2_4 + 989 X_3_0 + 1028 X_3_1 + 532 X_3_2 + 702 X_3_4
  + 980 X_4_0 + 522 X_4_1 + 733 X_4_2 + 702 X_4_3
  <= 3
Bounds
 1 <= U1 <= 4
 1 <= U2 <= 4
 1 <= U3 <= 4
 1 <= U4 <= 4
Binary
 X_0_1
 X_0_2
 X_0_3
 X_0_4
 X_1_0
 X_1_2
 X_1_3
 X_1_4
 X_2_0
 X_2_1
 X_2_3
 X_2_4
 X_3_0
 X_3_1
 X_3_2
 X_3_4
 X_4_0
 X_4_1
 X_4_2
 X_4_3
End
